Route #1: 4 34
Route #2: 46 8 35 7
Route #3: 26 12 40
Route #4: 32 44 3
Route #5: 16 49 24 18
Route #6: 50 25 9
Route #7: 39 31 10
Route #8: 38 11
Route #9: 53 14 19
Route #10: 54 13 52 27
Route #11: 45 29 5 15
Route #12: 20 37 36 47
Route #13: 21 48 30
Route #14: 2 28 22
Route #15: 42 41 43 23 1
Route #16: 33 6 51
Route #17: 17
Cost 986